PRECEDENCE RELATIONS:
jobnr.    #modes  #successors   successors
  1        1          1           2  
  2        1        5        3   4   5   6   7   
  3        1        1        8   
  4        1        1        8   
  5        1        1        8   
  6        1        1        8   
  7        1        1        8   
  8        1        2        72   9   
  9        1        5        10   11   12   13   14   
  10        1        1        15   
  11        1        1        15   
  12        1        1        15   
  13        1        1        15   
  14        1        1        15   
  15        1        2        79   16   
  16        1        5        17   18   19   20   21   
  17        1        1        22   
  18        1        1        22   
  19        1        1        22   
  20        1        1        22   
  21        1        1        22   
  22        1        2        86   23   
  23        1        5        24   25   26   27   28   
  24        1        1        29   
  25        1        1        29   
  26        1        1        29   
  27        1        1        29   
  28        1        1        29   
  29        1        2        93   30   
  30        1        5        31   32   33   34   35   
  31        1        1        36   
  32        1        1        36   
  33        1        1        36   
  34        1        1        36   
  35        1        1        36   
  36        1        2        100   37   
  37        1        5        38   39   40   41   42   
  38        1        1        43   
  39        1        1        43   
  40        1        1        43   
  41        1        1        43   
  42        1        1        43   
  43        1        1        44   
  44        1        5        45   46   47   48   49   
  45        1        1        50   
  46        1        1        50   
  47        1        1        50   
  48        1        1        50   
  49        1        1        50   
  50        1        1        51   
  51        1        5        52   53   54   55   56   
  52        1        1        57   
  53        1        1        57   
  54        1        1        57   
  55        1        1        57   
  56        1        1        57   
  57        1        1        58   
  58        1        5        59   60   61   62   63   
  59        1        1        64   
  60        1        1        64   
  61        1        1        64   
  62        1        1        64   
  63        1        1        64   
  64        1        1        65   
  65        1        5        66   67   68   69   70   
  66        1        1        71   
  67        1        1        71   
  68        1        1        71   
  69        1        1        71   
  70        1        1        71   
  71        1        1        352   
  72        1        5        73   74   75   76   77   
  73        1        1        78   
  74        1        1        78   
  75        1        1        78   
  76        1        1        78   
  77        1        1        78   
  78        1        2        142   79   
  79        1        5        80   81   82   83   84   
  80        1        1        85   
  81        1        1        85   
  82        1        1        85   
  83        1        1        85   
  84        1        1        85   
  85        1        2        149   86   
  86        1        5        87   88   89   90   91   
  87        1        1        92   
  88        1        1        92   
  89        1        1        92   
  90        1        1        92   
  91        1        1        92   
  92        1        2        156   93   
  93        1        5        94   95   96   97   98   
  94        1        1        99   
  95        1        1        99   
  96        1        1        99   
  97        1        1        99   
  98        1        1        99   
  99        1        2        163   100   
  100        1        5        101   102   103   104   105   
  101        1        1        106   
  102        1        1        106   
  103        1        1        106   
  104        1        1        106   
  105        1        1        106   
  106        1        2        170   107   
  107        1        5        108   109   110   111   112   
  108        1        1        113   
  109        1        1        113   
  110        1        1        113   
  111        1        1        113   
  112        1        1        113   
  113        1        2        37   114   
  114        1        5        115   116   117   118   119   
  115        1        1        120   
  116        1        1        120   
  117        1        1        120   
  118        1        1        120   
  119        1        1        120   
  120        1        2        44   121   
  121        1        5        122   123   124   125   126   
  122        1        1        127   
  123        1        1        127   
  124        1        1        127   
  125        1        1        127   
  126        1        1        127   
  127        1        2        51   128   
  128        1        5        129   130   131   132   133   
  129        1        1        134   
  130        1        1        134   
  131        1        1        134   
  132        1        1        134   
  133        1        1        134   
  134        1        2        58   135   
  135        1        5        136   137   138   139   140   
  136        1        1        141   
  137        1        1        141   
  138        1        1        141   
  139        1        1        141   
  140        1        1        141   
  141        1        1        65   
  142        1        5        143   144   145   146   147   
  143        1        1        148   
  144        1        1        148   
  145        1        1        148   
  146        1        1        148   
  147        1        1        148   
  148        1        2        212   149   
  149        1        5        150   151   152   153   154   
  150        1        1        155   
  151        1        1        155   
  152        1        1        155   
  153        1        1        155   
  154        1        1        155   
  155        1        2        219   156   
  156        1        5        157   158   159   160   161   
  157        1        1        162   
  158        1        1        162   
  159        1        1        162   
  160        1        1        162   
  161        1        1        162   
  162        1        2        226   177   
  163        1        5        164   165   166   167   168   
  164        1        1        169   
  165        1        1        169   
  166        1        1        169   
  167        1        1        169   
  168        1        1        169   
  169        1        2        233   184   
  170        1        5        171   172   173   174   175   
  171        1        1        176   
  172        1        1        176   
  173        1        1        176   
  174        1        1        176   
  175        1        1        176   
  176        1        2        240   191   
  177        1        5        178   179   180   181   182   
  178        1        1        183   
  179        1        1        183   
  180        1        1        183   
  181        1        1        183   
  182        1        1        183   
  183        1        2        107   163   
  184        1        5        185   186   187   188   189   
  185        1        1        190   
  186        1        1        190   
  187        1        1        190   
  188        1        1        190   
  189        1        1        190   
  190        1        2        114   170   
  191        1        5        192   193   194   195   196   
  192        1        1        197   
  193        1        1        197   
  194        1        1        197   
  195        1        1        197   
  196        1        1        197   
  197        1        2        121   198   
  198        1        5        199   200   201   202   203   
  199        1        1        204   
  200        1        1        204   
  201        1        1        204   
  202        1        1        204   
  203        1        1        204   
  204        1        2        128   205   
  205        1        5        206   207   208   209   210   
  206        1        1        211   
  207        1        1        211   
  208        1        1        211   
  209        1        1        211   
  210        1        1        211   
  211        1        1        135   
  212        1        5        213   214   215   216   217   
  213        1        1        218   
  214        1        1        218   
  215        1        1        218   
  216        1        1        218   
  217        1        1        218   
  218        1        2        282   219   
  219        1        5        220   221   222   223   224   
  220        1        1        225   
  221        1        1        225   
  222        1        1        225   
  223        1        1        225   
  224        1        1        225   
  225        1        2        289   226   
  226        1        5        227   228   229   230   231   
  227        1        1        232   
  228        1        1        232   
  229        1        1        232   
  230        1        1        232   
  231        1        1        232   
  232        1        2        296   247   
  233        1        5        234   235   236   237   238   
  234        1        1        239   
  235        1        1        239   
  236        1        1        239   
  237        1        1        239   
  238        1        1        239   
  239        1        2        303   261   
  240        1        5        241   242   243   244   245   
  241        1        1        246   
  242        1        1        246   
  243        1        1        246   
  244        1        1        246   
  245        1        1        246   
  246        1        2        310   268   
  247        1        5        248   249   250   251   252   
  248        1        1        253   
  249        1        1        253   
  250        1        1        253   
  251        1        1        253   
  252        1        1        253   
  253        1        2        177   254   
  254        1        5        255   256   257   258   259   
  255        1        1        260   
  256        1        1        260   
  257        1        1        260   
  258        1        1        260   
  259        1        1        260   
  260        1        2        184   233   
  261        1        5        262   263   264   265   266   
  262        1        1        267   
  263        1        1        267   
  264        1        1        267   
  265        1        1        267   
  266        1        1        267   
  267        1        2        191   240   
  268        1        5        269   270   271   272   273   
  269        1        1        274   
  270        1        1        274   
  271        1        1        274   
  272        1        1        274   
  273        1        1        274   
  274        1        2        198   275   
  275        1        5        276   277   278   279   280   
  276        1        1        281   
  277        1        1        281   
  278        1        1        281   
  279        1        1        281   
  280        1        1        281   
  281        1        1        205   
  282        1        0        
  283        1        0        
  284        1        0        
  285        1        0        
  286        1        0        
  287        1        0        
  288        1        1        317   
  289        1        0        
  290        1        0        
  291        1        0        
  292        1        0        
  293        1        0        
  294        1        0        
  295        1        1        324   
  296        1        0        
  297        1        0        
  298        1        0        
  299        1        0        
  300        1        0        
  301        1        0        
  302        1        1        331   
  303        1        0        
  304        1        0        
  305        1        0        
  306        1        0        
  307        1        0        
  308        1        0        
  309        1        1        338   
  310        1        0        
  311        1        0        
  312        1        0        
  313        1        0        
  314        1        0        
  315        1        0        
  316        1        1        345   
  317        1        0        
  318        1        0        
  319        1        0        
  320        1        0        
  321        1        0        
  322        1        0        
  323        1        2        247   289   
  324        1        0        
  325        1        0        
  326        1        0        
  327        1        0        
  328        1        0        
  329        1        0        
  330        1        2        254   296   
  331        1        0        
  332        1        0        
  333        1        0        
  334        1        0        
  335        1        0        
  336        1        0        
  337        1        2        261   303   
  338        1        0        
  339        1        0        
  340        1        0        
  341        1        0        
  342        1        0        
  343        1        0        
  344        1        2        268   310   
  345        1        0        
  346        1        0        
  347        1        0        
  348        1        0        
  349        1        0        
  350        1        0        
  351        1        1        275   
  352        1          0     
---------dummy line---------
REQUESTS/DURATIONS:
jobnr. mode duration  R 1
---------dummy line---------
  1      1     0       0 
  2     1     7     0 
  3     1     9     0 
  4     1     10     0 
  5     1     9     0 
  6     1     10     0 
  7     1     5     0 
  8     1     8     0 
  9     1     10     0 
  10     1     7     0 
  11     1     5     0 
  12     1     8     43 
  13     1     5     41 
  14     1     10     58 
  15     1     9     30 
  16     1     10     69 
  17     1     6     51 
  18     1     7     68 
  19     1     5     47 
  20     1     9     32 
  21     1     10     46 
  22     1     10     0 
  23     1     6     0 
  24     1     7     0 
  25     1     6     0 
  26     1     10     0 
  27     1     5     0 
  28     1     10     0 
  29     1     6     0 
  30     1     9     0 
  31     1     7     0 
  32     1     6     37 
  33     1     8     57 
  34     1     6     75 
  35     1     8     36 
  36     1     8     62 
  37     1     10     52 
  38     1     6     46 
  39     1     8     47 
  40     1     8     75 
  41     1     9     37 
  42     1     7     0 
  43     1     9     0 
  44     1     6     0 
  45     1     8     0 
  46     1     5     0 
  47     1     6     0 
  48     1     10     0 
  49     1     10     0 
  50     1     9     0 
  51     1     10     0 
  52     1     9     79 
  53     1     9     44 
  54     1     6     71 
  55     1     8     75 
  56     1     9     31 
  57     1     10     38 
  58     1     8     33 
  59     1     10     38 
  60     1     10     33 
  61     1     10     36 
  62     1     6     0 
  63     1     5     0 
  64     1     5     0 
  65     1     5     0 
  66     1     9     0 
  67     1     10     0 
  68     1     5     0 
  69     1     7     0 
  70     1     9     0 
  71     1     5     0 
  72     1     10     78 
  73     1     9     50 
  74     1     7     68 
  75     1     5     56 
  76     1     5     30 
  77     1     9     45 
  78     1     6     45 
  79     1     8     63 
  80     1     10     72 
  81     1     7     75 
  82     1     6     0 
  83     1     10     0 
  84     1     9     0 
  85     1     6     0 
  86     1     8     0 
  87     1     9     0 
  88     1     5     0 
  89     1     10     0 
  90     1     10     0 
  91     1     10     0 
  92     1     8     69 
  93     1     10     50 
  94     1     8     63 
  95     1     9     42 
  96     1     9     80 
  97     1     6     35 
  98     1     8     60 
  99     1     9     58 
  100     1     8     58 
  101     1     10     64 
  102     1     5     0 
  103     1     8     0 
  104     1     8     0 
  105     1     7     0 
  106     1     6     0 
  107     1     8     0 
  108     1     5     0 
  109     1     7     0 
  110     1     8     0 
  111     1     7     0 
  112     1     5     80 
  113     1     10     60 
  114     1     8     56 
  115     1     6     55 
  116     1     6     69 
  117     1     10     46 
  118     1     6     39 
  119     1     8     76 
  120     1     7     37 
  121     1     7     52 
  122     1     8     0 
  123     1     5     0 
  124     1     9     0 
  125     1     7     0 
  126     1     5     0 
  127     1     8     0 
  128     1     6     0 
  129     1     7     0 
  130     1     5     0 
  131     1     10     0 
  132     1     7     47 
  133     1     10     46 
  134     1     6     40 
  135     1     9     44 
  136     1     6     52 
  137     1     8     76 
  138     1     10     38 
  139     1     10     59 
  140     1     6     35 
  141     1     7     53 
  142     1     9     0 
  143     1     7     0 
  144     1     7     0 
  145     1     9     0 
  146     1     9     0 
  147     1     8     0 
  148     1     10     0 
  149     1     8     0 
  150     1     10     0 
  151     1     8     0 
  152     1     6     78 
  153     1     8     31 
  154     1     7     80 
  155     1     10     43 
  156     1     10     75 
  157     1     6     64 
  158     1     8     36 
  159     1     9     66 
  160     1     5     70 
  161     1     10     41 
  162     1     8     0 
  163     1     9     0 
  164     1     8     0 
  165     1     6     0 
  166     1     10     0 
  167     1     6     0 
  168     1     5     0 
  169     1     6     0 
  170     1     7     0 
  171     1     8     0 
  172     1     6     33 
  173     1     9     51 
  174     1     9     34 
  175     1     8     74 
  176     1     8     60 
  177     1     7     66 
  178     1     9     78 
  179     1     7     31 
  180     1     9     55 
  181     1     6     53 
  182     1     9     0 
  183     1     7     0 
  184     1     10     0 
  185     1     9     0 
  186     1     5     0 
  187     1     9     0 
  188     1     8     0 
  189     1     10     0 
  190     1     6     0 
  191     1     6     0 
  192     1     9     48 
  193     1     10     39 
  194     1     6     73 
  195     1     6     32 
  196     1     5     54 
  197     1     5     54 
  198     1     7     65 
  199     1     5     68 
  200     1     7     51 
  201     1     10     66 
  202     1     8     0 
  203     1     9     0 
  204     1     6     0 
  205     1     9     0 
  206     1     8     0 
  207     1     9     0 
  208     1     7     0 
  209     1     5     0 
  210     1     5     0 
  211     1     10     0 
  212     1     10     45 
  213     1     9     72 
  214     1     10     54 
  215     1     7     79 
  216     1     6     45 
  217     1     8     39 
  218     1     8     59 
  219     1     8     75 
  220     1     10     76 
  221     1     7     49 
  222     1     10     0 
  223     1     6     0 
  224     1     5     0 
  225     1     5     0 
  226     1     9     0 
  227     1     8     0 
  228     1     8     0 
  229     1     5     0 
  230     1     7     0 
  231     1     7     0 
  232     1     8     48 
  233     1     5     80 
  234     1     9     30 
  235     1     5     44 
  236     1     5     68 
  237     1     6     71 
  238     1     6     58 
  239     1     6     62 
  240     1     10     30 
  241     1     7     38 
  242     1     10     0 
  243     1     5     0 
  244     1     9     0 
  245     1     5     0 
  246     1     7     0 
  247     1     8     0 
  248     1     5     0 
  249     1     7     0 
  250     1     9     0 
  251     1     8     0 
  252     1     6     65 
  253     1     5     30 
  254     1     6     48 
  255     1     5     74 
  256     1     10     55 
  257     1     9     50 
  258     1     6     52 
  259     1     9     60 
  260     1     6     43 
  261     1     6     73 
  262     1     7     0 
  263     1     5     0 
  264     1     10     0 
  265     1     9     0 
  266     1     7     0 
  267     1     5     0 
  268     1     8     0 
  269     1     6     0 
  270     1     7     0 
  271     1     5     0 
  272     1     9     54 
  273     1     7     50 
  274     1     7     30 
  275     1     8     69 
  276     1     8     47 
  277     1     5     48 
  278     1     9     45 
  279     1     5     76 
  280     1     5     59 
  281     1     8     63 
  282     1     8     0 
  283     1     9     0 
  284     1     9     0 
  285     1     8     0 
  286     1     8     0 
  287     1     8     0 
  288     1     7     0 
  289     1     9     0 
  290     1     6     0 
  291     1     7     0 
  292     1     9     44 
  293     1     6     41 
  294     1     10     51 
  295     1     9     80 
  296     1     8     35 
  297     1     10     52 
  298     1     5     51 
  299     1     5     73 
  300     1     6     56 
  301     1     7     64 
  302     1     8     0 
  303     1     10     0 
  304     1     8     0 
  305     1     5     0 
  306     1     6     0 
  307     1     5     0 
  308     1     10     0 
  309     1     8     0 
  310     1     5     0 
  311     1     7     0 
  312     1     9     46 
  313     1     6     41 
  314     1     9     51 
  315     1     10     61 
  316     1     7     78 
  317     1     8     35 
  318     1     9     31 
  319     1     5     54 
  320     1     9     35 
  321     1     9     57 
  322     1     9     0 
  323     1     8     0 
  324     1     5     0 
  325     1     8     0 
  326     1     9     0 
  327     1     6     0 
  328     1     10     0 
  329     1     6     0 
  330     1     9     0 
  331     1     10     0 
  332     1     6     32 
  333     1     8     34 
  334     1     9     53 
  335     1     8     43 
  336     1     5     55 
  337     1     5     42 
  338     1     7     78 
  339     1     7     60 
  340     1     8     60 
  341     1     10     51 
  342     1     5     0 
  343     1     5     0 
  344     1     5     0 
  345     1     7     0 
  346     1     9     0 
  347     1     8     0 
  348     1     8     0 
  349     1     6     0 
  350     1     8     0 
  351     1     9     0 
 352      1     0       0 
---------dummy line---------
RESOURCEAVAILABILITIES:
   R 1   
   120   
---------dummy end---------
